CMD:
./solvers/bin/cadical --plain --no-reduce -t 1600 ./data/cnfs//cal129/cal129.22.cnf

c --- [ banner ] -------------------------------------------------------------
c 
c CaDiCaL SAT Solver
c Copyright (c) 2016-2024
c A. Biere, M. Fleury, N. Froleyks, K. Fazekas, F. Pollitt, T. Faller
c JKU Linz, University of Freiburg, TU Wien
c 
c Version 2.1.3 5296d3d2a9bf48c154ab2acb5e44625776d821bf
c g++ (Gentoo 12.3.1_p20230526 p2) 12.3.1 20230526 -Wall -Wextra -O3 -DNDEBUG
c Sat Aug 9 07:26:21 PDT 2025 Linux cedar2.int.cedar.computecanada.ca 5.14.0-362.24.2.el9_3.x86_64 x86_64
c 
c --- [ limit ] --------------------------------------------------------------
c 
c setting time limit to 1600 seconds real time (due to '-t 1600')
c 
c --- [ parsing input ] ------------------------------------------------------
c 
c reading DIMACS file from './data/cnfs//cal129/cal129.22.cnf'
c opening file to read './data/cnfs//cal129/cal129.22.cnf'
c found 'p cnf 629861 1790647' header
c parsed 1790647 clauses in 0.29 seconds process time
c 
c --- [ options ] ------------------------------------------------------------
c 
c   --compact=false                (different from default 'true')
c   --decompose=false              (different from default 'true')
c   --deduplicate=false            (different from default 'true')
c   --elim=false                   (different from default 'true')
c   --probe=false                  (different from default 'true')
c   --reduce=false                 (different from default 'true')
c   --subsume=false                (different from default 'true')
c   --ternary=false                (different from default 'true')
c   --transred=false               (different from default 'true')
c   --vivify=false                 (different from default 'true')
c 
c --- [ solving ] ------------------------------------------------------------
c 
c time measured in process time since initialization
c 
c  seconds   reductions  redundant   irredundant
c          MB    restarts       trail        variables
c           level   conflicts       glue           remaining
c 
c *  0.29 273  0 0   0    0    0  0% 0 1668296 601928 96%
c {  0.30 274  0 0   0    0    0  0% 0 1668296 601928 96%
c i  0.33 275 610 0  13  461  385  7% 4 1668296 601924 96%
c }  1.02 282 2780 0  62 1000  857 18% 4 1668296 601923 96%
c [  1.02 282  0 0  62 1000  857  0% 0 1668296 601923 96%
c O  1.04 282 740 0  62 1002  859  8% 2 1668296 601923 96%
c i  1.05 282 19 0  62 1122  968  5% 2 1668296 601921 96%
c i  1.23 283 19176 0  62 1726 1515 71% 4 1668296 601918 96%
c i  1.23 283 19226 0  62 1735 1523 71% 4 1668296 601916 96%
c ]  1.49 283 10836 0  63 3001 2691 45% 9 1668296 601915 96%
c {  1.49 283 2780 0  63 3001 2691 18% 4 1668296 601915 96%
c F  1.50 283 2771 0  64 3004 2693 18% 4 1668296 601915 96%
c i  2.45 284 1001 0 207 4832 4354 16% 4 1668296 601912 96%
c #  3.25 285 738 0 371 6006 5412 16% 4 1668296 601910 96%
c }  3.97 285 614 0 425 7001 6309 18% 4 1668296 601910 96%
c [  3.97 285 10836 0 425 7001 6309 45% 9 1668296 601910 96%
c i  4.05 285 10653 0 425 7041 6343 45% 9 1668296 601909 96%
c i  4.06 285 10597 0 425 7057 6356 45% 9 1668296 601908 96%
c i  4.07 285 10562 0 425 7072 6367 45% 9 1668296 601907 96%
c i  4.18 285 10383 0 426 7136 6424 45% 9 1668296 601894 96%
c 
c  seconds      reductions  redundant   irredundant
c          MB       restarts       trail        variables
c             level    conflicts       glue           remaining
c 
c i  4.19 285 10385 0 426 7141 6427 45% 9 1668296 601893 96%
c i  4.20 285 10393 0 426 7151 6432 45% 8 1668296 601892 96%
c i  4.21 285 10405 0 426 7158 6438 45% 8 1668296 601891 96%
c i  4.70 285 9102 0 426 7950 7141 48% 8 1668296 601876 96%
c i  4.73 285 8496 0 426 8170 7327 48% 9 1668296 601869 96%
c I  5.33 286 5415 0 427 10009 8955 41% 11 1668296 601866 96%
c ]  6.53 287 2691 0 430 15002 13346 27% 12 1668296 601866 96%
c {  6.53 287 614 0 430 15002 13346 18% 4 1668296 601866 96%
c B  6.56 287 613 0 432 15010 13354 18% 4 1668296 601866 96%
c i  6.93 288 537 0 518 15868 14124 17% 4 1668296 601865 96%
c i  7.26 288 559 0 534 16085 14322 18% 4 1668296 601862 96%
c i 10.78 289 443 0 885 19401 17340 19% 5 1668296 601857 96%
c i 11.81 289 422 0 990 20083 17965 19% 5 1668296 601854 96%
c W 13.32 289 395 0 1160 21011 18792 19% 5 1639947 601854 96%
c i 14.37 289 476 0 1377 22741 20299 19% 5 1639947 601852 96%
c i 14.57 289 470 0 1417 22930 20467 19% 5 1639947 601848 96%
c i 16.02 289 404 0 1882 25188 22540 18% 6 1639947 601843 96%
c F 18.58 289 361 0 2183 28012 25096 18% 6 1639947 601843 96%
c i 19.29 289 329 0 2317 29760 26666 17% 6 1639947 601842 96%
c } 20.05 289 319 0 2368 31004 27776 17% 6 1639947 601842 96%
c 
c  seconds     reductions     redundant    irredundant
c          MB      restarts          trail         variables
c            level      conflicts        glue            remaining
c 
c [ 20.05 289 2691 0 2368 31004 27776 27% 12 1639947 601842 96%
c i 20.53 289 2474 0 2368 31891 28576 26% 12 1639947 601839 96%
c i 21.22 289 2000 0 2369 34602 31108 27% 14 1639947 601834 96%
c B 21.57 289 1827 0 2371 36013 32317 28% 14 1639947 601834 96%
... skipped 266 lines ...
c 
c  seconds     reductions         redundant     irredundant
c           MB      restarts              trail         variables
c             level       conflicts           glue            remaining
c 
c F 690.00 721 107 0 63971 1485129 1255069 19% 14 1629429 599749 95%
c i 710.21 721 97 0 68227 1521771 1280128 18% 14 1629429 599748 95%
c i 721.00 721 98 0 69097 1536816 1291743 18% 14 1629429 599744 95%
c B 723.32 721 98 0 69436 1540131 1294310 18% 14 1629429 599743 95%
c i 723.69 721 98 0 69444 1540386 1294548 18% 14 1629429 599740 95%
c i 725.57 721 100 0 69517 1542651 1296634 18% 14 1629429 599737 95%
c i 725.57 721 100 0 69517 1542652 1296634 18% 14 1629429 599732 95%
c i 747.53 721 107 0 72673 1576502 1321485 18% 14 1629429 599731 95%
c W 764.61 746 110 0 74201 1596139 1338280 19% 14 1629358 599731 95%
c i 781.60 746 112 0 76343 1622118 1358832 19% 14 1629358 599728 95%
c # 806.70 746 108 0 78187 1653141 1384667 19% 14 1629358 599728 95%
c B 856.81 750 108 0 82181 1711142 1433286 20% 13 1629358 599728 95%
c i 867.83 755 114 0 82613 1723001 1444119 20% 13 1629358 599727 95%
c i 903.38 766 113 0 84787 1756365 1473552 20% 13 1629358 599725 95%
c W 919.15 795 117 0 85861 1770145 1485775 21% 13 1629339 599725 95%
c i 950.25 798 118 0 87927 1799865 1511690 21% 13 1629339 599722 95%
c i 966.91 799 116 0 89638 1813833 1523540 20% 14 1629339 599720 95%
c i 970.21 799 116 0 90024 1817773 1526775 20% 14 1629339 599717 95%
c F 983.33 799 116 0 90879 1830147 1537738 20% 14 1629339 599716 95%
c B 1045.86 800 112 0 95320 1891148 1590217 21% 14 1629339 599716 95%
c 
c   seconds     reductions          redundant     irredundant
c            MB      restarts               trail         variables
c              level        conflicts           glue            remaining
c 
c W 1119.93 839 110 0 100581 1953149 1644080 21% 14 1629309 599716 95%
c i 1180.46 843 111 0 104534 2005481 1688489 21% 13 1629309 599713 95%
c # 1190.55 843 108 0 104970 2016150 1697581 21% 13 1629309 599713 95%
c i 1213.28 843 112 0 106508 2036873 1714271 21% 13 1629309 599710 95%
c } 1223.39 843 110 0 107124 2047011 1722900 20% 13 1629309 599710 95%
c [ 1223.40 843 60 0 107124 2047011 1722900 15% 31 1629309 599710 95%
c i 1239.32 845 155 0 107128 2061030 1735905 18% 30 1629309 599709 95%
c I 1257.29 845 209 0 107139 2080152 1753827 21% 29 1629309 599709 95%
c B 1279.78 853 126 0 107159 2145153 1804383 17% 28 1629309 599709 95%
c W 1327.09 927 191 0 107176 2211156 1864536 21% 23 1629286 599709 95%
c i 1327.42 927 197 0 107176 2211598 1864939 21% 23 1629286 599708 95%
c O 1410.30 927 2546 0 107177 2278157 1927815 27% 21 1629286 599704 95%
c B 1447.26 928 1332 0 107178 2346158 1990580 24% 30 1629286 599704 95%
c W 1586.74 1052 3563 0 107178 2415160 2057492 38% 64 1629265 599704 95%
c ] 1589.65 1052 3506 0 107178 2416880 2059130 38% 65 1629265 599704 95%
c ? 1589.65 1052 3506 0 107178 2416880 2059130 38% 65 1629265 599704 95%
c 
c --- [ result ] -------------------------------------------------------------
c 
c UNKNOWN
c 
c --- [ run-time profiling ] -------------------------------------------------
c 
c process time taken by individual solving procedures
c (percentage relative to process time for solving)
c 
c      1589.36  100.00% search
c       971.21   61.11% unstable
c       605.57   38.10% stable
c        12.57    0.79% walk
c         0.29    0.02% parse
c         0.01    0.00% lucky
c         0.00    0.00% simplify
c   =================================
c      1589.36   99.98% solve
c 
c last line shows process time for solving
c (percentage relative to total process time)
c 
c --- [ statistics ] ---------------------------------------------------------
c 
c chronological:            661888        27.39 %  of conflicts
c conflicts:               2416880      1520.66    per second
c decisions:               9321807      5865.14    per second
c fixed:                     30156         4.79 %  of all variables
c learned:                 2340916        96.86 %  per conflict
c learned_lits:          245528497       100.00 %  learned literals
c minimized:                     0         0.00 %  learned literals
c shrunken:               66500860        27.08 %  learned literals
c minishrunken:           52768474        21.49 %  learned literals
c otfs:                       7076         0.29 %  of conflict
c propagations:        12495771232         7.86 M  per second
c rephased:                     69     35027.25    interval
c restarts:                 107178        22.55    interval
c stabilizing:                   6        43.51 %  of conflicts
c subsumed:                 277266         6.92 %  of all clauses
c strengthened:               6638         0.17 %  of all clauses
c walked:                       22    109858.18    interval
c 
c seconds are measured in process time for solving
c 
c --- [ resources ] ----------------------------------------------------------
c 
c total process time since initialization:      1589.65    seconds
c total real time since initialization:         1600.00    seconds
c maximum resident set size of process:         1504.11    MB
c 
c --- [ shutting down ] ------------------------------------------------------
c 
c exit 0
